CPXPARAM_Emphasis_MIP#P8#2#CPXPARAM_MIP_Cuts_MIRCut#P20#1#3.017547#0.643190
CPXPARAM_Emphasis_MIP#P8#2#CPXPARAM_MIP_Cuts_MIRCut#P20#2#1.561721#0.332881
CPXPARAM_Emphasis_MIP#P8#2#CPXPARAM_MIP_Strategy_NodeSelect#P39#1#2.532471#0.539796
CPXPARAM_Emphasis_MIP#P8#2#CPXPARAM_MIP_Strategy_NodeSelect#P39#2#1.693149#0.360895
CPXPARAM_Emphasis_MIP#P8#2#CPXPARAM_MIP_Strategy_NodeSelect#P39#3#0.580435#0.123720
CPXPARAM_Emphasis_MIP#P8#3#CPXPARAM_MIP_Cuts_MIRCut#P20#1#0.580432#0.123719
CPXPARAM_Emphasis_MIP#P8#3#CPXPARAM_MIP_Strategy_NodeSelect#P39#1#3.234881#0.689514
CPXPARAM_Emphasis_MIP#P8#3#CPXPARAM_MIP_Strategy_NodeSelect#P39#2#3.234900#0.689519
CPXPARAM_Emphasis_MIP#P8#4#CPXPARAM_MIP_Strategy_NodeSelect#P39#1#1.473809#0.314142
CPXPARAM_Emphasis_MIP#P8#4#CPXPARAM_MIP_Strategy_NodeSelect#P39#2#1.473812#0.314143
CPXPARAM_Emphasis_MIP#P8#5#CPXPARAM_MIP_Strategy_NodeSelect#P39#1#3.003565#0.640209
CPXPARAM_Emphasis_MIP#P8#5#CPXPARAM_MIP_Strategy_NodeSelect#P39#2#2.813982#0.599800
CPXPARAM_MIP_Cuts_MIRCut#P20#1#CPXPARAM_MIP_Strategy_NodeSelect#P39#2#1.561739#0.332885
CPXPARAM_MIP_Cuts_MIRCut#P20#2#CPXPARAM_MIP_Strategy_NodeSelect#P39#2#4.691534#1.000000
CPXPARAM_MIP_Cuts_MIRCut#P20#2#CPXPARAM_MIP_Strategy_NodeSelect#P39#3#0.580433#0.123719
